100 156182
23 76 75 83 30 15 43 25 55 80 45 49 22 99 87 14 11 56 89 61 70 92 12 72 58 29 93 82 50 77 38 9 66 36 97 2 48 32 59 84 17 53 1 35 81 96 26 67 24 94 31 73 85 90 68 95 8 52 16 69 71 27 54 5 19 86 46 4 42 3 34 63 64 44 62 20 40 28 6 37 33 91 21 74 10 98 39 79 65 13 88 60 78 100 7 47 41 57 51 18 
